Auf dieser Seite werden die möglichen Optionen bzw. Szenarien durchgespielt, um einen gemeinsamen Raum für den cthn zu finden. Dies ist eine Brainstorming-Seite, es sind also Beiträge jeglicher Art erwünscht.


!! Für was brauchen wir einen Raum?

* Regelmäßige und auch unregelmäßige Treffen zum Diskutieren oder planen oder einfach nur mal ne Runde Minecraft spielen oder die neusten Sony-Hacks zu bewerten :)
* Gemeinsame Projekte (Elektronik, Programmierung) planen und auch umsetzen. Dies können auch Projekte sein, die länger als einen Tag dauern.
* Mehr Präsenz -> Mehr Mitglieder

!! Was sind die Voraussetzungen für einen Raum?

* Strom
* Heizung
* Internet
* Sanitäre Anlagen
* Tische und Stühle mit ausreichend Platz für mehrere Personen
* Abschließbarer Bereich (Schrank o.ä.)
* optional:
 # Verein (Rechtsfähige Person), kommt auf die tatsächlichen Gegebenheiten an.
 # Versicherung, kommt auch auf die tatsächlichen Gegebenheiten an.
 # Sofas und Sessel, kommt auf die verfügbaren Räumlichkeiten und dessen Fläche an.

!! Was bin ich bereit, dafür zu geben?

* Zeit: |||
* Geld: |||
* Material: |||

!! Mögliche Optionen (Kommentare als Unterpunkte)

* [http://olga.heilbronner-jugendhaus.de/|Olga Jugendzentrum] => Mike hat mit denen telefoniert und sich einen Antrag zusenden lassen. Näheres dazu beim Treffen im Juli 2011.
* Kooperation mit dem [http://www.klubsofa.net/|Klubsofa], nach deren Umzug.
* Eigenen Verein gründen, Raum durch Mitgliedsbeiträge/Spenden finanzieren.
* Symbiose mit den Heilbronner Piraten (die auch auf Raumsuche sind) ~!!!Da der CCC unparteiisch ist, sollte auch beim CTHN hier nicht der Eindruck vermittelt werden. Eine Raumkooperation ist theoretisch möglich, jedoch muss die strikte Trennung nach Außen kommuniziert werden!!!~
* Dem [http://www.cc86.org/|CC86] beitreten.
* Vitamin B: Leerstehenden Raum nutzen für Gegenleistung (Netzwerk einrichten o.ä.).
* Bei der Stadt anfragen zwecks Zuschuss bzw. Bereitstellung.
* Einen Raum in einer Kirche, Schule oder anderer öffentlicher Einrichtung für eine bestimmte Zeit/Tag in der Woche.

!!Offene Fragen
# Für wieviele Personen muss der Raum ausgelegt sein?
# Reicht uns ein einziger Raum?
# Welche Kosten kommen auf uns zu?
 * Strom
 * Miete/Mietbeteiligung
 * Heizungskosten
 * Wasser/Abwasser
 * Müllgebühren
 * Steuern?
 * Versicherung (sicher sinnvoll)
 * Internet
 * evtl. Hardware für Infrastruktur etc.
 * Umbau-/Renovierungsarbeiten
# Wer übernimmt die Verantwortung, für Raum/Einrichtung etc., falls kein Verein gegründet wird?
