Auf dieser Seite werden die möglichen Optionen bzw. Szenarien durchgespielt, um einen gemeinsamen Raum für den cthn zu finden. Dies ist eine Brainstorming-Seite, es sind also Beiträge jeglicher Art erwünscht.


!! Für was brauchen wir einen Raum?

* Regelmäßige und auch unregelmäßige Treffen zum Diskutieren oder planen oder einfach nur mal ne Runde Minecraft spielen oder die neusten Sony-Hacks zu bewerten :)
* Gemeinsame Projekte (Elektronik, Programmierung) planen und auch umsetzen. Dies können auch Projekte sein, die länger als einen Tag dauern.
* Mehr Präsenz -> Mehr Mitglieder

!! Was sind die Voraussetzungen für einen Raum?

* Strom
* Internet
* Abschließbarer Bereich (Schrank o.ä.)
* Sanitäre Anlagen
* optional: Verein (Rechtsfähige Person), kommt auf die tatsächlichen Gegebenheiten an
* optional: Versicherung, kommt auf die tatsächlichen Gegebenheiten an
* Heizung

!! Was bin ich bereit, dafür zu geben?

* Zeit: |||
* Geld: |||
* Material: |||

!! Mögliche Optionen (Kommentare als Unterpunkte)

* Symbiose mit den Heilbronner Piraten (die auch auf Raumsuche sind)
** da der CCC unparteiisch ist, sollte auch beim CTHN hier nicht der Eindruck vermittelt werden. Eine Raumkooperation ist theoretisch möglich, jedoch muss die strikte Trennung nach Außen kommuniziert werden!
* Zusammenschluss mit dem Klubsofa nach deren Umzug.
* Dem CC86 beitreten
* Eigenen Verein gründen, Raum durch Mitgliedsbeiträge/Spenden finanzieren
* Vitamin B: Leerstehenden Raum nutzen für Gegenleistung (Netzwerk einrichten o.ä.)
* Bei der Stadt anfragen zwecks Zuschuss bzw. Bereitstellung.
* Einen Raum in einer Kirche, Schule oder anderer öffentlicher Einrichtung für eine bestimmte Zeit/Tag in der Woche.
* Olga Jugendzentrum [http://olga.heilbronner-jugendhaus.de/] -> Mike hat mit denen telefoniert und sich einen Antrag zusenden lassen. Näheres dazu beim nächsten Treffen.
