Auf dieser Seite werden die möglichen Optionen bzw. Szenarien durchgespielt, um einen gemeinsamen Raum für den cthn zu finden. Dies ist eine Brainstorming-Seite, es sind also Beiträge jeglicher Art erwünscht.

!! Für was brauchen wir einen Raum?

* Regelmäßige und auch unregelmäßige Treffen zum Diskutieren oder planen oder einfach nur mal ne Runde Minecraft spielen oder die neusten Sony-Hacks zu bewerten :)
* Gemeinsame Projekte (Elektronik, Programmierung) planen und auch umsetzen. Dies können auch Projekte sein, die länger als einen Tag dauern.
* Mehr Präsenz -> Mehr Mitglieder

!! Was sind die Voraussetzungen für einen Raum?

* Internet
* Abschließbarer Bereich (Schrank o.ä.)

!! Mögliche Optionen (Kommentare als Unterpunkte)

* Symbiose mit den Heilbronner Piraten (die auch auf Raumsuche sind)
* Zusammenschluss mit dem Clubsofa nach Umzug
* Dem CC86 beitreten
* Eigenen Verein gründen, Raum durch Mitgliedsbeiträge/Spenden finanzieren
* Vitamin B: Leerstehenden Raum nutzen für Gegenleistung (Netzwerk einrichten o.ä.)
* Bei der Stadt anfragen zwecks Zuschuss bzw. Bereitstellung.
* Einen Raum in einer Kirche, Schule oder anderer öffentlicher Einrichtung für eine bestimmte Zeit/Tag in der Woche.